(set-info :smt-lib-version 2.6)
(set-logic QF_AUFLIA)
(set-info :source |Generator: Rodin SMT Plug-in|)
(set-info :license "https://creativecommons.org/licenses/by-nc/4.0/")
(set-info :category "industrial")
(set-info :status sat)

(declare-sort Color 0)
(declare-fun a () Int)
(declare-fun b () Int)
(declare-fun c () Int)
(declare-fun d () Int)
(declare-fun green () Color)
(declare-fun il_tl () Color)
(declare-fun ml_tl () Color)

(assert (! (= ml_tl green)
         :named hyp1))
(assert (! (= c 0)
         :named hyp2))
(assert (! (= il_tl green)
         :named hyp3))
(assert (! (= a 0)
         :named hyp4))
(assert (! (< 0 b)
         :named hyp5))
(assert (! (or 
               (< 1 b) 
               (= b 1))
         :named hyp6))
(assert (! (< (+ b 1) d)
         :named hyp7))
(assert (! (< b d)
         :named hyp8))
(assert (not 
            false))
(check-sat)
(exit)

